qbf_easy_train/easy_126_UNSAT.qdimacs
p cnf 29 78
a 1 11 22 0
e 2 3 4 5 6 7 8 9 10 12 13 14 15 16 17 18 19 20 21 23 24 25 26 27 28 29 0
1 -2 -3 0
-1 2 -3 0
1 2 3 0
-1 -2 3 0
4 -3 0
4 2 0
3 -2 -4 0
6 5 0
6 -5 0
7 -4 0
7 6 0
4 -6 -7 0
9 -2 0
9 8 0
2 -8 -9 0
10 8 0
10 8 0
-8 -10 0
9 -10 -11 0
-9 10 -11 0
9 10 11 0
-9 -10 11 0
-13 -14 -15 0
13 14 -15 0
-13 14 15 0
13 -14 15 0
-16 -12 0
-16 -15 0
12 15 16 0
-17 -11 0
-17 16 0
11 -16 17 0
2 18 0
-2 18 0
19 2 0
19 18 0
-2 -18 -19 0
8 19 -20 0
-8 -19 -20 0
8 -19 20 0
-8 19 20 0
-21 17 0
-21 -20 0
-17 20 21 0
15 -22 -23 0
-15 22 -23 0
15 22 23 0
-15 -22 23 0
23 18 -24 0
-23 -18 -24 0
23 -18 24 0
-23 18 24 0
-21 -24 -25 0
21 24 -25 0
-21 24 25 0
21 -24 25 0
26 7 0
26 -25 0
-7 25 -26 0
-27 -8 0
-27 22 0
8 -22 27 0
-27 19 -28 0
27 -19 -28 0
-27 -19 28 0
27 19 28 0
26 28 -29 0
-26 -28 -29 0
26 -28 29 0
-26 28 29 0
-20 -18 21 -23 0
-22 -13 -6 11 12 -8 0
11 7 3 0
-22 -29 27 20 -23 -26 -18 0
8 3 14 15 -29 26 -5 0
-25 6 -13 19 -29 20 23 0
21 -12 -23 -6 5 -9 -29 0
29 0
