sat_easy_train/easy_126_UNSAT.dimacs
p cnf 148 509
-3 1 0
-3 -2 0
-1 2 3 0
5 1 0
5 -4 0
-1 4 -5 0
-6 3 0
-6 -5 0
-3 5 6 0
9 7 0
9 -8 0
-7 8 -9 0
-10 6 0
-10 -9 0
-6 9 10 0
12 -4 0
12 11 0
4 -11 -12 0
10 12 -13 0
-10 -12 -13 0
10 -12 13 0
-10 12 13 0
-15 13 0
-15 -14 0
-13 14 15 0
-15 -16 -17 0
15 16 -17 0
-15 16 17 0
15 -16 17 0
18 -11 -19 0
-18 11 -19 0
18 11 19 0
-18 -11 19 0
20 -9 0
20 -19 0
9 19 -20 0
11 -21 -22 0
-11 21 -22 0
11 21 22 0
-11 -21 22 0
-20 -22 -23 0
20 22 -23 0
-20 22 23 0
20 -22 23 0
17 -23 -24 0
-17 23 -24 0
17 23 24 0
-17 -23 24 0
25 -21 0
25 -11 0
21 11 -25 0
27 25 0
27 -26 0
-25 26 -27 0
29 28 0
29 1 0
-28 -1 -29 0
-30 29 0
-30 -1 0
-29 1 30 0
31 -30 0
31 -20 0
30 20 -31 0
32 8 0
32 -3 0
-8 3 -32 0
31 32 -33 0
-31 -32 -33 0
31 -32 33 0
-31 32 33 0
-27 33 -34 0
27 -33 -34 0
-27 -33 34 0
27 33 34 0
5 35 -36 0
-5 -35 -36 0
5 -35 36 0
-5 35 36 0
37 36 0
37 -4 0
-36 4 -37 0
-38 37 0
-38 18 0
-37 -18 38 0
-38 9 -39 0
38 -9 -39 0
-38 -9 39 0
38 9 39 0
40 14 0
40 -19 0
-14 19 -40 0
40 14 -41 0
-40 -14 -41 0
40 -14 41 0
-40 14 41 0
-42 -41 0
-42 25 0
41 -25 42 0
43 40 0
43 -1 0
-40 1 -43 0
32 -43 -44 0
-32 43 -44 0
32 43 44 0
-32 -43 44 0
45 5 0
45 44 0
-5 -44 -45 0
-46 45 0
-46 -6 0
-45 6 46 0
42 -46 -47 0
-42 46 -47 0
42 46 47 0
-42 -46 47 0
-14 -48 -49 0
14 48 -49 0
-14 48 49 0
14 -48 49 0
-50 45 0
-50 -49 0
-45 49 50 0
-51 -42 0
-51 21 0
42 -21 51 0
52 -50 0
52 -51 0
50 51 -52 0
-5 20 -53 0
5 -20 -53 0
-5 -20 53 0
5 20 53 0
-53 16 -54 0
53 -16 -54 0
-53 -16 54 0
53 16 54 0
55 54 0
55 -30 0
-54 30 -55 0
-56 52 0
-56 55 0
-52 -55 56 0
-57 47 0
-57 -56 0
-47 56 57 0
58 39 0
58 -57 0
-39 57 -58 0
-59 -34 0
-59 58 0
34 -58 59 0
-24 -59 -60 0
24 59 -60 0
-24 59 60 0
24 -59 60 0
61 -27 0
61 44 0
27 -44 -61 0
8 25 -62 0
-8 -25 -62 0
8 -25 62 0
-8 25 62 0
63 -62 0
63 -48 0
62 48 -63 0
63 40 -64 0
-63 -40 -64 0
63 -40 64 0
-63 40 64 0
-61 64 -65 0
61 -64 -65 0
-61 -64 65 0
61 64 65 0
66 38 0
66 -11 0
-38 11 -66 0
-18 35 -67 0
18 -35 -67 0
-18 -35 67 0
18 35 67 0
14 67 -68 0
-14 -67 -68 0
14 -67 68 0
-14 67 68 0
70 -68 0
70 -69 0
68 69 -70 0
-71 66 0
-71 70 0
-66 -70 71 0
72 -65 0
72 71 0
65 -71 -72 0
73 -62 0
73 67 0
62 -67 -73 0
74 -73 0
74 -12 0
73 12 -74 0
75 -74 0
75 63 0
74 -63 -75 0
40 49 -76 0
-40 -49 -76 0
40 -49 76 0
-40 49 76 0
-77 75 0
-77 -76 0
-75 76 77 0
-78 38 0
-78 27 0
-38 -27 78 0
79 -78 0
79 13 0
78 -13 -79 0
-79 75 -80 0
79 -75 -80 0
-79 -75 80 0
79 75 80 0
-77 80 -81 0
77 -80 -81 0
-77 -80 81 0
77 80 81 0
82 -4 0
82 -18 0
4 18 -82 0
83 32 0
83 -67 0
-32 67 -83 0
84 -83 0
84 -9 0
83 9 -84 0
85 -16 0
85 84 0
16 -84 -85 0
-86 -82 0
-86 85 0
82 -85 86 0
-87 1 0
-87 14 0
-1 -14 87 0
-87 40 -88 0
87 -40 -88 0
-87 -40 88 0
87 40 88 0
86 -88 -89 0
-86 88 -89 0
86 88 89 0
-86 -88 89 0
90 81 0
90 89 0
-81 -89 -90 0
-91 72 0
-91 90 0
-72 -90 91 0
-92 60 0
-92 91 0
-60 -91 92 0
-93 35 0
-93 -69 0
-35 69 93 0
94 -22 0
94 40 0
22 -40 -94 0
-95 94 0
-95 -75 0
-94 75 95 0
96 93 0
96 -95 0
-93 95 -96 0
-28 63 -97 0
28 -63 -97 0
-28 -63 97 0
28 63 97 0
18 -3 -98 0
-18 3 -98 0
18 3 98 0
-18 -3 98 0
-99 19 0
-99 -98 0
-19 98 99 0
-18 -94 -100 0
18 94 -100 0
-18 94 100 0
18 -94 100 0
100 -53 -101 0
-100 53 -101 0
100 53 101 0
-100 -53 101 0
-102 -33 0
-102 26 0
33 -26 102 0
-103 101 0
-103 -102 0
-101 102 103 0
104 -99 0
104 -103 0
99 103 -104 0
-105 38 0
-105 53 0
-38 -53 105 0
73 3 -106 0
-73 -3 -106 0
73 -3 106 0
-73 3 106 0
107 26 0
107 106 0
-26 -106 -107 0
25 -53 -108 0
-25 53 -108 0
25 53 108 0
-25 -53 108 0
-109 107 0
-109 -108 0
-107 108 109 0
-110 -7 0
-110 53 0
7 -53 110 0
-6 -48 -111 0
6 48 -111 0
-6 48 111 0
6 -48 111 0
-111 -87 -112 0
111 87 -112 0
-111 87 112 0
111 -87 112 0
-113 -110 0
-113 -112 0
110 112 113 0
109 -113 -114 0
-109 113 -114 0
109 113 114 0
-109 -113 114 0
115 105 0
115 -114 0
-105 114 -115 0
-116 104 0
-116 115 0
-104 -115 116 0
-117 97 0
-117 -116 0
-97 116 117 0
118 96 0
118 117 0
-96 -117 -118 0
119 2 0
119 25 0
-2 -25 -119 0
120 -119 0
120 -62 0
119 62 -120 0
-121 120 0
-121 1 0
-120 -1 121 0
-14 -121 -122 0
14 121 -122 0
-14 121 122 0
14 -121 122 0
123 -53 0
123 49 0
53 -49 -123 0
78 29 -124 0
-78 -29 -124 0
78 -29 124 0
-78 29 124 0
37 11 -125 0
-37 -11 -125 0
37 -11 125 0
-37 11 125 0
-124 -125 -126 0
124 125 -126 0
-124 125 126 0
124 -125 126 0
127 123 0
127 126 0
-123 -126 -127 0
128 122 0
128 127 0
-122 -127 -128 0
40 -16 -129 0
-40 16 -129 0
40 16 129 0
-40 -16 129 0
-130 -76 0
-130 5 0
76 -5 130 0
131 -129 0
131 -130 0
129 130 -131 0
-3 -73 -132 0
3 73 -132 0
-3 73 132 0
3 -73 132 0
133 -131 0
133 -132 0
131 132 -133 0
-134 31 0
-134 43 0
-31 -43 134 0
-42 -82 -135 0
42 82 -135 0
-42 82 135 0
42 -82 135 0
137 -135 0
137 -136 0
135 136 -137 0
-134 -137 -138 0
134 137 -138 0
-134 137 138 0
134 -137 138 0
139 42 0
139 3 0
-42 -3 -139 0
-140 -138 0
-140 139 0
138 -139 140 0
-141 10 0
-141 16 0
-10 -16 141 0
142 21 0
142 26 0
-21 -26 -142 0
141 -142 -143 0
-141 142 -143 0
141 142 143 0
-141 -142 143 0
-144 -140 0
-144 -143 0
140 143 144 0
-145 133 0
-145 -144 0
-133 144 145 0
146 128 0
146 -145 0
-128 145 -146 0
118 146 -147 0
-118 -146 -147 0
118 -146 147 0
-118 146 147 0
-148 -92 0
-148 147 0
92 -147 148 0
141 86 0
2 -64 0
103 -12 -97 0
6 146 79 -27 64 138 0
46 91 -50 138 -37 0
65 46 -90 146 4 0
121 -146 -61 -118 117 0
-47 -140 -11 12 89 0
27 126 76 28 66 99 0
-20 133 84 143 0
-21 -68 -29 46 -91 0
-9 5 101 -3 -32 0
61 -18 -144 37 -32 0
-8 -41 -103 115 -15 0
-59 -35 82 47 -104 109 0
-86 104 -91 23 -2 0
117 54 -2 50 -25 128 0
-56 111 22 -69 0
103 52 -38 0
41 -61 -138 -63 -64 -24 0
-26 121 -23 -57 12 0
134 50 -41 0
37 -39 28 11 72 -77 0
-28 -30 -32 -2 33 16 0
50 100 0
-124 -116 87 122 59 0
47 -13 0
91 28 -132 -73 143 0
117 61 -146 -143 131 0
32 -1 18 0
-56 -57 0
-19 -82 0
36 -48 -49 0
51 -125 -129 0
-116 120 -105 -108 128 -75 0
-88 -27 -62 131 -75 0
52 -95 -47 -112 115 -4 0
31 111 121 0
94 57 -116 80 69 25 0
-148 92 53 -100 56 0
2 -128 -104 0
82 -21 63 -134 66 0
-54 1 -146 0
144 -105 89 0
-103 127 -57 118 128 78 0
56 -71 30 114 0
-17 65 0
67 -120 0
-61 -79 35 42 0
-22 -143 -107 84 0
143 86 0
143 82 -147 0
40 -127 -86 139 0
46 42 -59 0
-101 -79 145 -70 -40 0
-38 115 -147 -69 -37 9 0
49 -102 0
31 -120 -3 7 0
42 -91 -94 49 -75 0
94 -55 -7 0
-78 43 104 0
-60 -67 -52 0
105 41 -57 16 -38 0
63 114 -145 -14 101 0
105 68 74 143 -122 0
145 -127 146 -143 30 0
148 0
